; benchmark generated from python API
(set-info :status unknown)
(declare-fun x_epoch () Int)
(declare-fun y_epoch () Int)
(declare-fun z_epoch () Int)
(declare-fun x_shift_period_900750_epoch () Int)
(declare-fun x_year () Int)
(declare-fun x_month () Int)
(declare-fun x_day () Int)
(declare-fun x_shift_period_900750_year () Int)
(declare-fun x_shift_period_900750_month () Int)
(declare-fun x_shift_period_900750_day () Int)
(declare-fun x_shift_period_908032_epoch () Int)
(declare-fun x_shift_period_908032_year () Int)
(declare-fun x_shift_period_908032_month () Int)
(declare-fun x_shift_period_908032_day () Int)
(assert
 (>= x_epoch (- 36584)))
(assert
 (<= x_epoch 36829))
(assert
 (= x_epoch 8371))
(assert
 (>= y_epoch (- 36584)))
(assert
 (<= y_epoch 36829))
(assert
 (>= z_epoch (- 36584)))
(assert
 (<= z_epoch 36829))
(assert
 (>= x_shift_period_900750_epoch (- 36584)))
(assert
 (<= x_shift_period_900750_epoch 36829))
(assert
 (let (($x3195 (<= x_year 2100)))
 (let (($x3177 (>= x_year 1900)))
 (let (($x2872 (= x_month 11)))
 (let (($x815 (= x_month 9)))
 (let (($x3917 (= x_month 6)))
 (let (($x376 (= x_month 4)))
 (let ((?x2278 (ite (or $x376 $x3917 $x815 $x2872) 30 31)))
 (let (($x3245 (= (mod x_year 4) 0)))
 (let (($x1838 (= (mod x_year 100) 0)))
 (let (($x1098 (= (mod x_year 400) 0)))
 (let (($x1123 (ite $x1098 true (ite $x1838 false $x3245))))
 (let (($x2885 (= x_month 2)))
 (let ((?x1225 (ite $x2885 (ite $x1123 29 28) ?x2278)))
 (let (($x4162 (>= x_day 1)))
 (let (($x4286 (<= x_month 12)))
 (let (($x948 (>= x_month 1)))
 (and $x948 $x4286 $x4162 (<= x_day ?x1225) $x3177 $x3195))))))))))))))))))
(assert
 (let (($x29 (or (and (= (mod 2000 4) 0) (and (distinct (mod 2000 100) 0) true)) (= (mod 2000 400) 0))))
 (let ((?x36 (ite (= 3 2) (ite $x29 31 31) (ite (= 3 1) (ite $x29 0 0) 0))))
 (let ((?x40 (ite $x29 60 59)))
 (let ((?x41 (ite (= 3 3) ?x40 ?x36)))
 (let ((?x46 (ite (= 3 4) (ite $x29 91 90) ?x41)))
 (let ((?x52 (ite (= 3 5) (ite $x29 121 120) ?x46)))
 (let ((?x58 (ite (= 3 6) (ite $x29 152 151) ?x52)))
 (let ((?x64 (ite (= 3 7) (ite $x29 182 181) ?x58)))
 (let ((?x70 (ite (= 3 8) (ite $x29 213 212) ?x64)))
 (let ((?x76 (ite (= 3 9) (ite $x29 244 243) ?x70)))
 (let ((?x82 (ite (= 3 10) (ite $x29 274 273) ?x76)))
 (let ((?x88 (ite (= 3 11) (ite $x29 305 304) ?x82)))
 (let ((?x16 (- (+ (* 365 (- 2000 1)) (div (- 2000 1) 4)) (div (- 2000 1) 100))))
 (let ((?x95 (+ (+ ?x16 (div (- 2000 1) 400)) (ite (= 3 12) (ite $x29 335 334) ?x88))))
 (let ((?x97 (+ ?x95 (- 1 1))))
 (let (($x3245 (= (mod x_year 4) 0)))
 (let (($x1838 (= (mod x_year 100) 0)))
 (let (($x1098 (= (mod x_year 400) 0)))
 (let (($x1123 (ite $x1098 true (ite $x1838 false $x3245))))
 (let (($x508 (= 2 x_month)))
 (let ((?x293 (ite $x508 (ite $x1123 31 31) (ite (= 1 x_month) (ite $x1123 0 0) 0))))
 (let (($x467 (= 3 x_month)))
 (let (($x906 (= 4 x_month)))
 (let ((?x2351 (ite $x906 (ite $x1123 91 90) (ite $x467 (ite $x1123 60 59) ?x293))))
 (let (($x3816 (= 5 x_month)))
 (let (($x3012 (= 6 x_month)))
 (let ((?x897 (ite $x3012 (ite $x1123 152 151) (ite $x3816 (ite $x1123 121 120) ?x2351))))
 (let (($x1091 (= 7 x_month)))
 (let (($x1249 (= 8 x_month)))
 (let ((?x2575 (ite $x1249 (ite $x1123 213 212) (ite $x1091 (ite $x1123 182 181) ?x897))))
 (let (($x702 (= 9 x_month)))
 (let (($x3233 (= 10 x_month)))
 (let ((?x2065 (ite $x3233 (ite $x1123 274 273) (ite $x702 (ite $x1123 244 243) ?x2575))))
 (let (($x4166 (= 11 x_month)))
 (let (($x556 (= 12 x_month)))
 (let ((?x2109 (ite $x556 (ite $x1123 335 334) (ite $x4166 (ite $x1123 305 304) ?x2065))))
 (let ((?x545 (- (+ (* 365 (- x_year 1)) (div (- x_year 1) 4)) (div (- x_year 1) 100))))
 (let ((?x1789 (+ (+ (+ ?x545 (div (- x_year 1) 400)) ?x2109) (- x_day 1))))
 (= x_epoch (- ?x1789 ?x97)))))))))))))))))))))))))))))))))))))))))
(assert
 (let (($x1135 (<= x_shift_period_900750_year 2100)))
 (let (($x4378 (>= x_shift_period_900750_year 1900)))
 (let (($x4211 (= x_shift_period_900750_month 11)))
 (let (($x2231 (= x_shift_period_900750_month 9)))
 (let (($x3520 (= x_shift_period_900750_month 6)))
 (let (($x4475 (= x_shift_period_900750_month 4)))
 (let ((?x1095 (ite (or $x4475 $x3520 $x2231 $x4211) 30 31)))
 (let (($x4804 (= (mod x_shift_period_900750_year 4) 0)))
 (let (($x4906 (= (mod x_shift_period_900750_year 100) 0)))
 (let (($x4947 (= (mod x_shift_period_900750_year 400) 0)))
 (let (($x2237 (ite $x4947 true (ite $x4906 false $x4804))))
 (let (($x4460 (= x_shift_period_900750_month 2)))
 (let (($x4466 (>= x_shift_period_900750_day 1)))
 (let (($x569 (<= x_shift_period_900750_month 12)))
 (let (($x4927 (>= x_shift_period_900750_month 1)))
 (and $x4927 $x569 $x4466 (<= x_shift_period_900750_day (ite $x4460 (ite $x2237 29 28) ?x1095)) $x4378 $x1135)))))))))))))))))
(assert
 (let (($x29 (or (and (= (mod 2000 4) 0) (and (distinct (mod 2000 100) 0) true)) (= (mod 2000 400) 0))))
 (let ((?x36 (ite (= 3 2) (ite $x29 31 31) (ite (= 3 1) (ite $x29 0 0) 0))))
 (let ((?x40 (ite $x29 60 59)))
 (let ((?x41 (ite (= 3 3) ?x40 ?x36)))
 (let ((?x46 (ite (= 3 4) (ite $x29 91 90) ?x41)))
 (let ((?x52 (ite (= 3 5) (ite $x29 121 120) ?x46)))
 (let ((?x58 (ite (= 3 6) (ite $x29 152 151) ?x52)))
 (let ((?x64 (ite (= 3 7) (ite $x29 182 181) ?x58)))
 (let ((?x70 (ite (= 3 8) (ite $x29 213 212) ?x64)))
 (let ((?x76 (ite (= 3 9) (ite $x29 244 243) ?x70)))
 (let ((?x82 (ite (= 3 10) (ite $x29 274 273) ?x76)))
 (let ((?x88 (ite (= 3 11) (ite $x29 305 304) ?x82)))
 (let ((?x16 (- (+ (* 365 (- 2000 1)) (div (- 2000 1) 4)) (div (- 2000 1) 100))))
 (let ((?x95 (+ (+ ?x16 (div (- 2000 1) 400)) (ite (= 3 12) (ite $x29 335 334) ?x88))))
 (let ((?x97 (+ ?x95 (- 1 1))))
 (let (($x4804 (= (mod x_shift_period_900750_year 4) 0)))
 (let (($x4906 (= (mod x_shift_period_900750_year 100) 0)))
 (let (($x4947 (= (mod x_shift_period_900750_year 400) 0)))
 (let (($x2237 (ite $x4947 true (ite $x4906 false $x4804))))
 (let ((?x1376 (ite (= 1 x_shift_period_900750_month) (ite $x2237 0 0) 0)))
 (let ((?x468 (ite (= 3 x_shift_period_900750_month) (ite $x2237 60 59) (ite (= 2 x_shift_period_900750_month) (ite $x2237 31 31) ?x1376))))
 (let ((?x4105 (ite (= 5 x_shift_period_900750_month) (ite $x2237 121 120) (ite (= 4 x_shift_period_900750_month) (ite $x2237 91 90) ?x468))))
 (let ((?x456 (ite (= 7 x_shift_period_900750_month) (ite $x2237 182 181) (ite (= 6 x_shift_period_900750_month) (ite $x2237 152 151) ?x4105))))
 (let ((?x1618 (ite (= 9 x_shift_period_900750_month) (ite $x2237 244 243) (ite (= 8 x_shift_period_900750_month) (ite $x2237 213 212) ?x456))))
 (let ((?x505 (ite (= 11 x_shift_period_900750_month) (ite $x2237 305 304) (ite (= 10 x_shift_period_900750_month) (ite $x2237 274 273) ?x1618))))
 (let ((?x2029 (+ (* 365 (- x_shift_period_900750_year 1)) (div (- x_shift_period_900750_year 1) 4))))
 (let ((?x265 (+ (- ?x2029 (div (- x_shift_period_900750_year 1) 100)) (div (- x_shift_period_900750_year 1) 400))))
 (let ((?x4956 (+ ?x265 (ite (= 12 x_shift_period_900750_month) (ite $x2237 335 334) ?x505))))
 (= x_shift_period_900750_epoch (- (+ ?x4956 (- x_shift_period_900750_day 1)) ?x97)))))))))))))))))))))))))))))))
(assert
 (let ((?x5138 (+ (+ (* 12 x_year) (- x_month 1)) 1)))
 (let ((?x494 (div ?x5138 12)))
 (= x_shift_period_900750_year ?x494))))
(assert
 (let ((?x1844 (+ (mod (+ (+ (* 12 x_year) (- x_month 1)) 1) 12) 1)))
 (= x_shift_period_900750_month ?x1844)))
(assert
 (let ((?x1844 (+ (mod (+ (+ (* 12 x_year) (- x_month 1)) 1) 12) 1)))
 (let ((?x3503 (ite (or (= ?x1844 4) (= ?x1844 6) (= ?x1844 9) (= ?x1844 11)) 30 31)))
 (let ((?x5138 (+ (+ (* 12 x_year) (- x_month 1)) 1)))
 (let ((?x494 (div ?x5138 12)))
 (let (($x5032 (ite (= (mod ?x494 400) 0) true (ite (= (mod ?x494 100) 0) false (= (mod ?x494 4) 0)))))
 (let ((?x3000 (ite (= ?x1844 2) (ite $x5032 29 28) ?x3503)))
 (let ((?x4907 (ite (<= x_day ?x3000) x_day ?x3000)))
 (let (($x2872 (= x_month 11)))
 (let (($x815 (= x_month 9)))
 (let (($x3917 (= x_month 6)))
 (let (($x376 (= x_month 4)))
 (let ((?x2278 (ite (or $x376 $x3917 $x815 $x2872) 30 31)))
 (let (($x3245 (= (mod x_year 4) 0)))
 (let (($x1838 (= (mod x_year 100) 0)))
 (let (($x1098 (= (mod x_year 400) 0)))
 (let (($x1123 (ite $x1098 true (ite $x1838 false $x3245))))
 (let (($x2885 (= x_month 2)))
 (let ((?x1225 (ite $x2885 (ite $x1123 29 28) ?x2278)))
 (= x_shift_period_900750_day (ite false (ite (= x_day ?x1225) ?x3000 ?x4907) ?x4907)))))))))))))))))))))
(assert
 (= y_epoch x_shift_period_900750_epoch))
(assert
 (>= x_shift_period_908032_epoch (- 36584)))
(assert
 (<= x_shift_period_908032_epoch 36829))
(assert
 (let (($x241 (<= x_shift_period_908032_year 2100)))
 (let (($x164 (>= x_shift_period_908032_year 1900)))
 (let (($x1645 (= x_shift_period_908032_month 11)))
 (let (($x4376 (= x_shift_period_908032_month 9)))
 (let (($x4558 (= x_shift_period_908032_month 6)))
 (let (($x1507 (= x_shift_period_908032_month 4)))
 (let ((?x1830 (ite (or $x1507 $x4558 $x4376 $x1645) 30 31)))
 (let (($x5374 (= (mod x_shift_period_908032_year 4) 0)))
 (let (($x2727 (= (mod x_shift_period_908032_year 100) 0)))
 (let (($x1751 (= (mod x_shift_period_908032_year 400) 0)))
 (let (($x1721 (ite $x1751 true (ite $x2727 false $x5374))))
 (let (($x1646 (= x_shift_period_908032_month 2)))
 (let (($x4284 (>= x_shift_period_908032_day 1)))
 (let (($x1826 (<= x_shift_period_908032_month 12)))
 (let (($x5006 (>= x_shift_period_908032_month 1)))
 (and $x5006 $x1826 $x4284 (<= x_shift_period_908032_day (ite $x1646 (ite $x1721 29 28) ?x1830)) $x164 $x241)))))))))))))))))
(assert
 (let (($x29 (or (and (= (mod 2000 4) 0) (and (distinct (mod 2000 100) 0) true)) (= (mod 2000 400) 0))))
 (let ((?x36 (ite (= 3 2) (ite $x29 31 31) (ite (= 3 1) (ite $x29 0 0) 0))))
 (let ((?x40 (ite $x29 60 59)))
 (let ((?x41 (ite (= 3 3) ?x40 ?x36)))
 (let ((?x46 (ite (= 3 4) (ite $x29 91 90) ?x41)))
 (let ((?x52 (ite (= 3 5) (ite $x29 121 120) ?x46)))
 (let ((?x58 (ite (= 3 6) (ite $x29 152 151) ?x52)))
 (let ((?x64 (ite (= 3 7) (ite $x29 182 181) ?x58)))
 (let ((?x70 (ite (= 3 8) (ite $x29 213 212) ?x64)))
 (let ((?x76 (ite (= 3 9) (ite $x29 244 243) ?x70)))
 (let ((?x82 (ite (= 3 10) (ite $x29 274 273) ?x76)))
 (let ((?x88 (ite (= 3 11) (ite $x29 305 304) ?x82)))
 (let ((?x16 (- (+ (* 365 (- 2000 1)) (div (- 2000 1) 4)) (div (- 2000 1) 100))))
 (let ((?x95 (+ (+ ?x16 (div (- 2000 1) 400)) (ite (= 3 12) (ite $x29 335 334) ?x88))))
 (let ((?x97 (+ ?x95 (- 1 1))))
 (let (($x5374 (= (mod x_shift_period_908032_year 4) 0)))
 (let (($x2727 (= (mod x_shift_period_908032_year 100) 0)))
 (let (($x1751 (= (mod x_shift_period_908032_year 400) 0)))
 (let (($x1721 (ite $x1751 true (ite $x2727 false $x5374))))
 (let ((?x1545 (ite (= 1 x_shift_period_908032_month) (ite $x1721 0 0) 0)))
 (let ((?x1728 (ite (= 3 x_shift_period_908032_month) (ite $x1721 60 59) (ite (= 2 x_shift_period_908032_month) (ite $x1721 31 31) ?x1545))))
 (let ((?x4012 (ite (= 5 x_shift_period_908032_month) (ite $x1721 121 120) (ite (= 4 x_shift_period_908032_month) (ite $x1721 91 90) ?x1728))))
 (let ((?x2127 (ite (= 7 x_shift_period_908032_month) (ite $x1721 182 181) (ite (= 6 x_shift_period_908032_month) (ite $x1721 152 151) ?x4012))))
 (let ((?x4655 (ite (= 9 x_shift_period_908032_month) (ite $x1721 244 243) (ite (= 8 x_shift_period_908032_month) (ite $x1721 213 212) ?x2127))))
 (let ((?x1100 (ite (= 11 x_shift_period_908032_month) (ite $x1721 305 304) (ite (= 10 x_shift_period_908032_month) (ite $x1721 274 273) ?x4655))))
 (let ((?x4307 (+ (* 365 (- x_shift_period_908032_year 1)) (div (- x_shift_period_908032_year 1) 4))))
 (let ((?x1181 (+ (- ?x4307 (div (- x_shift_period_908032_year 1) 100)) (div (- x_shift_period_908032_year 1) 400))))
 (let ((?x604 (+ ?x1181 (ite (= 12 x_shift_period_908032_month) (ite $x1721 335 334) ?x1100))))
 (= x_shift_period_908032_epoch (- (+ ?x604 (- x_shift_period_908032_day 1)) ?x97)))))))))))))))))))))))))))))))
(assert
 (= x_shift_period_908032_epoch (+ x_epoch 30)))
(assert
 (= z_epoch x_shift_period_908032_epoch))
(assert
 (not (= y_epoch z_epoch)))
(check-sat)
